param N := 10;

param S :				
	1	2	3	4	5	6	7 	8	9	10:=
1	11	9	4	7	14	15	12	9	12	10	
2	10	8	9	3	10	8	9	12	8	9
3	13	9	10	6	7	6	10	11	7	10
4	8	11	5	9	14	8	6	9	15	12
5	10	14	10	8	11	8	7	6	10	8
6	7	8	10	5	14	10	8	4	5	7
7	10	5	12	15	6	8	5	10	9	9
8	9	8	6	12	5	10	11	14	20	16
9	8	6	4	10	8	12	15	6	8	9
10	10	8	12	15	10	14	13	5	7	17;

param F :=

1	55
2	50
3	20
4	40
5	20
6	40
7	38
8	45
9	65
10	55;
	
param C :=

1	3
2	3
3	2
4	5
5	2
6	3
7	2
8	3
9	4
10	3;

